p cnf 29 57
16 -1 0
-16 1 0
17 -13 11 -10 0
-17 13 0
-17 -11 0
-17 10 0
18 -8 7 -6 0
-18 8 0
-18 -7 0
-18 6 0
-2 16 17 18 0
2 -16 0
2 -17 0
2 -18 0
19 -11 -10 0
-19 11 0
-19 10 0
20 -3 -2 0
-20 3 0
-20 2 0
21 -7 -6 0
-21 7 0
-21 6 0
-4 19 20 21 0
4 -19 0
4 -20 0
4 -21 0
22 -14 12 -10 0
-22 14 0
-22 -12 0
-22 10 0
23 -5 0
-23 5 0
-6 22 23 0
6 -22 0
6 -23 0
24 -8 0
-24 8 0
25 -7 0
-25 7 0
-9 24 25 0
9 -24 0
9 -25 0
26 -11 0
-26 11 0
27 -13 0
-27 13 0
-12 26 27 0
12 -26 0
12 -27 0
28 -12 0
-28 12 0
29 -14 0
-29 14 0
-15 28 29 0
15 -28 0
15 -29 0
c p weight 1 0.5 0
c p weight -1 0.5 0
c p weight 2 1.0 0
c p weight -2 1.0 0
c p weight 3 1.0 0
c p weight -3 0.0 0
c p weight 4 1.0 0
c p weight -4 0.0 0
c p weight 5 0.5 0
c p weight -5 0.5 0
c p weight 6 1.0 0
c p weight -6 1.0 0
c p weight 7 0.5 0
c p weight -7 0.5 0
c p weight 8 1.0 0
c p weight -8 0.0 0
c p weight 9 1.0 0
c p weight -9 1.0 0
c p weight 10 0.5 0
c p weight -10 0.5 0
c p weight 11 0.3333333333333333 0
c p weight -11 0.6666666666666667 0
c p weight 12 1.0 0
c p weight -12 1.0 0
c p weight 13 0.49999999999999994 0
c p weight -13 0.5 0
c p weight 14 0.9999999999999997 0
c p weight -14 3.3306690738754696e-16 0
c p weight 15 1.0 0
c p weight -15 1.0 0
c p weight 16 1.0 0
c p weight -16 1.0 0
c p weight 17 1.0 0
c p weight -17 1.0 0
c p weight 18 1.0 0
c p weight -18 1.0 0
c p weight 19 1.0 0
c p weight -19 1.0 0
c p weight 20 1.0 0
c p weight -20 1.0 0
c p weight 21 1.0 0
c p weight -21 1.0 0
c p weight 22 1.0 0
c p weight -22 1.0 0
c p weight 23 1.0 0
c p weight -23 1.0 0
c p weight 24 1.0 0
c p weight -24 1.0 0
c p weight 25 1.0 0
c p weight -25 1.0 0
c p weight 26 1.0 0
c p weight -26 1.0 0
c p weight 27 1.0 0
c p weight -27 1.0 0
c p weight 28 1.0 0
c p weight -28 1.0 0
c p weight 29 1.0 0
c p weight -29 1.0 0
c p semirings aspmc.semirings.probabilistic 0
c p quantify 1 2 3 4 5 6 7 8 9 10 11 12 13 14 15 16 17 18 19 20 21 22 23 24 25 26 27 28 29 0
c p auxilliary 2 6 9 12 15 16 17 18 19 20 21 22 23 24 25 26 27 28 29 0
